1000 100
451 50
406 25
463 24
191 23
250 11
142 84
483 19
76 95
438 56
205 78
213 100
220 77
339 7
206 67
367 97
448 73
267 19
267 90
182 39
243 64
150 31
249 36
250 82
330 11
149 53
315 72
239 36
134 29
189 98
199 48
291 87
451 24
313 57
77 22
331 83
450 5
367 74
130 42
83 84
344 21
407 54
219 13
74 22
147 46
215 46
293 96
297 16
151 10
260 50
55 76
118 98
420 81
265 18
278 49
208 12
490 23
65 79
206 47
272 20
69 57
489 47
153 67
426 26
185 97
433 22
235 82
253 98
387 23
496 65
128 62
476 52
228 88
276 64
486 63
425 82
479 64
212 24
302 17
464 66
266 89
233 35
491 44
324 36
288 29
492 59
72 7
177 67
234 32
159 29
187 54
451 11
381 13
124 3
489 36
409 88
216 54
116 84
166 9
228 18
326 46
